NAME : D-n25-k9
CAPACITY : 230
NODE_COORD_SECTION
1   349   158
2   328   491
3   254   461
4   479   318
5   309   246
6   326   474
7   112   386
8   271   274
9   170   477
10   91   290
11   331   249
12   176   235
13   335   264
14   449   185
15   95   193
16   317   100
17   474   323
18   289   464
19   482   154
20   76   73
21   339   374
22   189   384
23   389   320
24   319   323
25   245   187
DEMAND_SECTION
1   0
2   87
3   66
4   48
5   15
6   81
7   95
8   22
9   77
10   75
11   9
12   70
13   52
14   54
15   56
16   84
17   59
18   96
19   51
20   61
21   70
22   33
23   49
24   89
25   78
DEPOT_SECTION
    1
    -1
EOF